; sanic :: corpus-study/repo_src/sanic/sanic/server/websockets/impl.py :: LOCK 'WebsocketImplProtocol.conn_mutex' :: naive encoding (verdict: sat)
; Generated by snf-pipeline (encoder.py) -- run with any
; SMT-LIB2-compliant solver, e.g. `z3 sanic__corpus-study_repo_src_sanic_sanic_server_websockets_impl.py__WebsocketImplProtocol.conn_mutex__naive.smt2`
; benchmark generated from python API
(set-info :status unknown)
(declare-fun holds_3 () Bool)
(declare-fun holds_2 () Bool)
(declare-fun holds_1 () Bool)
(declare-fun holds_0 () Bool)
(assert
 (let (($x52 (and holds_1 holds_2)))
(let (($x53 (and holds_0 holds_2)))
(let (($x47 (and holds_0 holds_1)))
(or $x47 $x53 (and holds_0 holds_3) $x52 (and holds_1 holds_3) (and holds_2 holds_3))))))
(check-sat)
